42013
17,82,134,146,262,296,376,407,426,463,586,643,767,778,820,842,892,983,1043,1143,1361,1397,1431,1457,1496,1510,1581,1684,1698,1705,1719,1757,1988,2146,2191,2258,2447,2596,2632,2677,2718,2744,2844,2848,2881,2891,2896,3000,3021,3032,3097,3143,3170,3215,3216,3232,3249,3254,3361,3364,3382,3398,3442,3516,3562,3579,3580,3617,3624,3675,3688,3833,3914,3955,4012,4148,4268,4343,4356,4584,4725,4756,4951
